p tdp 83 82
15 30
82 68
57 42
73 39
8 9
10 4
11 70
41 43
78 79
52 42
60 23
29 60
64 82
37 47
18 50
53 32
75 14
36 7
42 11
59 12
27 26
17 63
68 77
38 45
24 49
21 30
82 3
20 19
14 23
25 72
8 14
65 10
1 16
55 15
51 23
7 39
44 14
72 47
2 71
40 62
76 53
28 22
34 13
5 49
4 74
51 19
46 56
80 62
67 11
2 38
45 61
54 29
79 50
37 66
4 50
13 56
59 67
73 1
33 62
38 1
83 48
6 34
31 56
63 81
35 19
20 22
83 60
67 31
72 5
69 27
18 73
2 34
10 81
33 16
5 69
58 16
41 65
26 55
82 80
11 20
47 67
76 62
